(set-info :Origin "This instance was generated by: BanditFuzz-- an RL fuzzer for SMT solvers" )
(set-info :Author "Joseph Scott, Fed Mora, Vijay Ganesh" )
(set-info :Contact "Joseph Scott, joseph.scott@uwaterloo.ca")
(set-logic QF_FP)
(assert (fp.eq
    (fp.add RNE (fp #b0 #b00 #b00) (fp #b0 #b0000 #b0000))
    (fp #b0 #b0 #b00)
))
(check-sat)